[VALIDATOR STDOUT]
Type-checking move
...action passes type checking.
Type-checking pick
...action passes type checking.
Type-checking drop
...action passes type checking.
Checking plan: /home/jfan5/Safety-gen/runs/benchmark/optic/grippers_20260205_142606/grippers/optic_results/grippers-n2-r17-o15-s15001.plan
Plan to validate:

Plan size: 45
1:
(move robot1 room1 room9)
 
2:
(move robot2 room1 room9)
 
3:
(pick robot1 ball9 room9 lgripper1)
 
4:
(pick robot2 ball1 room9 lgripper2)
 
5:
(move robot1 room9 room16)
 
6:
(move robot2 room9 room3)
 
7:
(drop robot1 ball9 room16 lgripper1)
 
8:
(pick robot2 ball6 room3 rgripper2)
 
9:
(move robot2 room3 room15)
 
10:
(move robot1 room16 room8)
 
11:
(drop robot2 ball6 room15 rgripper2)
 
12:
(pick robot1 ball2 room8 lgripper1)
 
13:
(move robot2 room15 room11)
 
14:
(move robot1 room8 room12)
 
15:
(drop robot2 ball1 room11 lgripper2)
 
16:
(pick robot2 ball11 room11 rgripper2)
 
17:
(pick robot1 ball8 room12 rgripper1)
 
18:
(move robot2 room11 room17)
 
19:
(move robot1 room12 room16)
 
20:
(drop robot2 ball11 room17 rgripper2)
 
21:
(drop robot1 ball8 room16 rgripper1)
 
22:
(drop robot1 ball2 room16 lgripper1)
 
23:
(move robot1 room16 room8)
 
24:
(move robot2 room17 room8)
 
25:
(move robot1 room8 room13)
 
26:
(move robot2 room8 room6)
 
27:
(pick robot1 ball10 room13 lgripper1)
 
28:
(pick robot2 ball13 room6 lgripper2)
 
29:
(move robot1 room13 room14)
 
30:
(move robot2 room6 room12)
 
31:
(drop robot1 ball10 room14 lgripper1)
 
32:
(pick robot2 ball5 room12 rgripper2)
 
33:
(move robot2 room12 room7)
 
34:
(move robot1 room14 room5)
 
35:
(drop robot2 ball5 room7 rgripper2)
 
36:
(move robot1 room5 room8)
 
37:
(move robot2 room7 room10)
 
38:
(move robot1 room8 room10)
 
39:
(drop robot2 ball13 room10 lgripper2)
 
40:
(pick robot2 ball15 room10 rgripper2)
 
41:
(pick robot1 ball4 room10 lgripper1)
 
42:
(move robot2 room10 room5)
 
43:
(move robot1 room10 room8)
 
44:
(drop robot2 ball15 room5 rgripper2)
 
45:
(drop robot1 ball4 room8 lgripper1)
 

Plan Validation details
-----------------------

Checking next happening (time 1)
Deleting (at-robby robot1 room1)
Adding (at-robby robot1 room9)

Checking next happening (time 2)
Deleting (at-robby robot2 room1)
Adding (at-robby robot2 room9)

Checking next happening (time 3)
Deleting (at ball9 room9)
Deleting (free robot1 lgripper1)
Adding (carry robot1 ball9 lgripper1)

Checking next happening (time 4)
Deleting (at ball1 room9)
Deleting (free robot2 lgripper2)
Adding (carry robot2 ball1 lgripper2)

Checking next happening (time 5)
Deleting (at-robby robot1 room9)
Adding (at-robby robot1 room16)

Checking next happening (time 6)
Deleting (at-robby robot2 room9)
Adding (at-robby robot2 room3)

Checking next happening (time 7)
Deleting (carry robot1 ball9 lgripper1)
Adding (at ball9 room16)
Adding (free robot1 lgripper1)

Checking next happening (time 8)
Deleting (at ball6 room3)
Deleting (free robot2 rgripper2)
Adding (carry robot2 ball6 rgripper2)

Checking next happening (time 9)
Deleting (at-robby robot2 room3)
Adding (at-robby robot2 room15)

Checking next happening (time 10)
Deleting (at-robby robot1 room16)
Adding (at-robby robot1 room8)

Checking next happening (time 11)
Deleting (carry robot2 ball6 rgripper2)
Adding (at ball6 room15)
Adding (free robot2 rgripper2)

Checking next happening (time 12)
Deleting (at ball2 room8)
Deleting (free robot1 lgripper1)
Adding (carry robot1 ball2 lgripper1)

Checking next happening (time 13)
Deleting (at-robby robot2 room15)
Adding (at-robby robot2 room11)

Checking next happening (time 14)
Deleting (at-robby robot1 room8)
Adding (at-robby robot1 room12)

Checking next happening (time 15)
Deleting (carry robot2 ball1 lgripper2)
Adding (at ball1 room11)
Adding (free robot2 lgripper2)

Checking next happening (time 16)
Deleting (at ball11 room11)
Deleting (free robot2 rgripper2)
Adding (carry robot2 ball11 rgripper2)

Checking next happening (time 17)
Deleting (at ball8 room12)
Deleting (free robot1 rgripper1)
Adding (carry robot1 ball8 rgripper1)

Checking next happening (time 18)
Deleting (at-robby robot2 room11)
Adding (at-robby robot2 room17)

Checking next happening (time 19)
Deleting (at-robby robot1 room12)
Adding (at-robby robot1 room16)

Checking next happening (time 20)
Deleting (carry robot2 ball11 rgripper2)
Adding (at ball11 room17)
Adding (free robot2 rgripper2)

Checking next happening (time 21)
Deleting (carry robot1 ball8 rgripper1)
Adding (at ball8 room16)
Adding (free robot1 rgripper1)

Checking next happening (time 22)
Deleting (carry robot1 ball2 lgripper1)
Adding (at ball2 room16)
Adding (free robot1 lgripper1)

Checking next happening (time 23)
Deleting (at-robby robot1 room16)
Adding (at-robby robot1 room8)

Checking next happening (time 24)
Deleting (at-robby robot2 room17)
Adding (at-robby robot2 room8)

Checking next happening (time 25)
Deleting (at-robby robot1 room8)
Adding (at-robby robot1 room13)

Checking next happening (time 26)
Deleting (at-robby robot2 room8)
Adding (at-robby robot2 room6)

Checking next happening (time 27)
Deleting (at ball10 room13)
Deleting (free robot1 lgripper1)
Adding (carry robot1 ball10 lgripper1)

Checking next happening (time 28)
Deleting (at ball13 room6)
Deleting (free robot2 lgripper2)
Adding (carry robot2 ball13 lgripper2)

Checking next happening (time 29)
Deleting (at-robby robot1 room13)
Adding (at-robby robot1 room14)

Checking next happening (time 30)
Deleting (at-robby robot2 room6)
Adding (at-robby robot2 room12)

Checking next happening (time 31)
Deleting (carry robot1 ball10 lgripper1)
Adding (at ball10 room14)
Adding (free robot1 lgripper1)

Checking next happening (time 32)
Deleting (at ball5 room12)
Deleting (free robot2 rgripper2)
Adding (carry robot2 ball5 rgripper2)

Checking next happening (time 33)
Deleting (at-robby robot2 room12)
Adding (at-robby robot2 room7)

Checking next happening (time 34)
Deleting (at-robby robot1 room14)
Adding (at-robby robot1 room5)

Checking next happening (time 35)
Deleting (carry robot2 ball5 rgripper2)
Adding (at ball5 room7)
Adding (free robot2 rgripper2)

Checking next happening (time 36)
Deleting (at-robby robot1 room5)
Adding (at-robby robot1 room8)

Checking next happening (time 37)
Deleting (at-robby robot2 room7)
Adding (at-robby robot2 room10)

Checking next happening (time 38)
Deleting (at-robby robot1 room8)
Adding (at-robby robot1 room10)

Checking next happening (time 39)
Deleting (carry robot2 ball13 lgripper2)
Adding (at ball13 room10)
Adding (free robot2 lgripper2)

Checking next happening (time 40)
Deleting (at ball15 room10)
Deleting (free robot2 rgripper2)
Adding (carry robot2 ball15 rgripper2)

Checking next happening (time 41)
Deleting (at ball4 room10)
Deleting (free robot1 lgripper1)
Adding (carry robot1 ball4 lgripper1)

Checking next happening (time 42)
Deleting (at-robby robot2 room10)
Adding (at-robby robot2 room5)

Checking next happening (time 43)
Deleting (at-robby robot1 room10)
Adding (at-robby robot1 room8)

Checking next happening (time 44)
Deleting (carry robot2 ball15 rgripper2)
Adding (at ball15 room5)
Adding (free robot2 rgripper2)

Checking next happening (time 45)
Deleting (carry robot1 ball4 lgripper1)
Adding (at ball4 room8)
Adding (free robot1 lgripper1)
Plan executed successfully - checking goal
Plan valid
Final value: 45 

Successful plans:
Value: 45
 /home/jfan5/Safety-gen/runs/benchmark/optic/grippers_20260205_142606/grippers/optic_results/grippers-n2-r17-o15-s15001.plan 45
